ampl/building_blocks.dat
# Building blocks problem
param n := 4;
param num_words := 12;

# no q or z
set letters = a b c d e f g h i j k l m n o p r s t u v w x y;

param words: 1 2 3 4 :=
 1  b a k e 
 2  o n y x 
 3  e c h o 
 4  o v a l 
 5  g i r d 
 6  s m u g 
 7  j u m p 
 8  t o r n 
 9  l u c k 
10  v i n y 
11  l u s h 
12  w r a p
;
